122 5
10 10 10 10 10 

0 0 0 0 0 0 5 2 14 26 38 50 
0 0 0 0 0 0 5 3 4 5 6 7 
3 0 0 1 0 0 5 12 10 9 8 56 
2 0 0 2 0 0 3 12 10 8 
7 0 0 3 0 0 3 12 9 8 
1 0 0 3 0 0 2 12 8 
2 0 0 3 0 0 2 9 8 
2 0 0 1 0 0 1 11 
5 0 0 3 0 0 1 11 
4 0 0 3 0 0 1 11 
6 0 0 2 0 0 1 13 
5 0 0 4 0 0 1 13 
0 0 0 0 0 0 1 62 
0 0 0 0 0 0 2 15 16 
4 0 1 0 0 0 3 19 18 17 
6 0 3 0 0 0 2 20 17 
3 0 3 0 0 0 4 24 23 22 21 
6 0 3 0 0 0 4 24 23 22 21 
3 0 2 0 0 0 4 24 23 22 21 
10 0 1 0 0 0 1 21 
5 0 3 0 0 0 1 25 
10 0 4 0 0 0 1 25 
5 0 1 0 0 0 1 25 
4 0 4 0 0 0 1 25 
0 0 0 0 0 0 1 62 
0 0 0 0 0 0 5 27 28 30 31 36 
10 0 0 0 1 0 4 35 34 33 29 
9 0 0 0 2 0 2 33 29 
8 0 0 0 4 0 1 32 
8 0 0 0 4 0 1 33 
2 0 0 0 1 0 1 32 
1 0 0 0 3 0 1 37 
5 0 0 0 2 0 1 37 
4 0 0 0 3 0 1 37 
8 0 0 0 3 0 1 37 
5 0 0 0 2 0 1 37 
0 0 0 0 0 0 1 62 
0 0 0 0 0 0 5 39 40 41 42 43 
8 0 0 1 0 0 4 48 47 46 44 
3 0 0 4 0 0 3 48 47 44 
7 0 0 3 0 0 3 48 46 44 
4 0 0 1 0 0 3 47 46 45 
4 0 0 2 0 0 2 46 44 
4 0 0 3 0 0 1 45 
2 0 0 3 0 0 1 49 
7 0 0 5 0 0 1 49 
2 0 0 2 0 0 1 49 
3 0 0 1 0 0 1 49 
0 0 0 0 0 0 1 62 
0 0 0 0 0 0 6 51 52 57 58 59 60 
3 0 0 0 1 0 2 54 53 
3 0 0 0 2 0 2 56 54 
6 0 0 0 2 0 1 55 
10 0 0 0 5 0 1 61 
5 0 0 0 2 0 1 61 
4 0 0 0 2 0 1 61 
6 0 0 0 1 0 1 61 
2 0 0 0 2 0 1 61 
1 0 0 0 5 0 1 61 
7 0 0 0 3 0 1 61 
0 0 0 0 0 0 1 62 
0 0 0 0 0 0 2 63 75 
0 0 0 0 0 0 3 64 65 68 
10 0 0 1 0 0 3 69 67 66 
3 0 0 4 0 0 2 69 66 
6 0 0 4 0 0 4 73 72 71 70 
5 0 0 1 0 0 4 73 72 71 70 
2 0 0 5 0 0 4 73 72 71 70 
5 0 0 1 0 0 3 72 71 70 
10 0 0 3 0 0 1 74 
9 0 0 3 0 0 1 74 
5 0 0 1 0 0 1 74 
10 0 0 2 0 0 1 74 
0 0 0 0 0 0 1 87 
0 0 0 0 0 0 6 76 77 82 83 84 85 
9 0 0 1 0 0 2 81 79 
6 0 0 4 0 0 1 78 
6 0 0 2 0 0 1 80 
2 0 0 2 0 0 1 80 
6 0 0 3 0 0 1 86 
10 0 0 2 0 0 1 86 
5 0 0 5 0 0 1 86 
5 0 0 1 0 0 1 86 
2 0 0 2 0 0 1 86 
5 0 0 3 0 0 1 86 
0 0 0 0 0 0 1 87 
0 0 0 0 0 0 4 88 89 96 97 
4 0 0 0 0 1 3 95 94 90 
8 0 0 0 0 4 1 90 
3 0 0 0 0 3 3 93 92 91 
7 0 0 0 0 2 1 98 
10 0 0 0 0 3 1 98 
10 0 0 0 0 3 1 98 
3 0 0 0 0 1 1 98 
9 0 0 0 0 3 1 98 
5 0 0 0 0 2 1 98 
2 0 0 0 0 3 1 98 
0 0 0 0 0 0 1 99 
0 0 0 0 0 0 4 100 101 103 104 
9 0 0 0 0 1 4 109 108 107 102 
8 0 0 0 0 2 3 108 106 105 
5 0 0 0 0 2 2 106 105 
8 0 0 0 0 3 2 107 105 
7 0 0 0 0 2 1 105 
3 0 0 0 0 3 1 110 
2 0 0 0 0 2 1 110 
1 0 0 0 0 3 1 110 
10 0 0 0 0 2 1 110 
9 0 0 0 0 5 1 110 
0 0 0 0 0 0 1 111 
0 0 0 0 0 0 5 112 113 115 116 117 
4 0 0 0 0 1 3 121 120 114 
5 0 0 0 0 5 2 121 118 
5 0 0 0 0 1 1 118 
7 0 0 0 0 3 1 120 
5 0 0 0 0 2 1 119 
10 0 0 0 0 2 1 119 
8 0 0 0 0 4 1 122 
10 0 0 0 0 3 1 122 
5 0 0 0 0 2 1 122 
3 0 0 0 0 2 1 122 
0 0 0 0 0 0 0 
